s td 15 85 100
b 1 1 2 3 4 5 6 7 8 9 11 12 13 14 15 16 17 18 20 21 22 23 24 25 26 27 28 29 30 31 33 34 35 37 38 39 40 41 42 43 44 45 47 48 49 50 51 52 54 55 56 57 58 59 60 62 63 64 65 66 67 68 69 71 72 73 76 79 81 82 83 86 87 88 89 90 91 92 93 94 95 96 97 98 99 100
b 2 2 3 4 5 6 7 8 9 10 11 12 14 15 16 17 18 19 20 21 22 23 24 25 26 27 28 29 30 31 33 34 35 37 38 39 40 41 42 43 44 45 47 48 49 50 51 52 54 55 56 57 58 59 60 62 63 64 65 66 67 68 69 71 72 73 76 79 81 82 83 86 87 88 89 90 91 92 93 94 95 96 97 98 99 100
b 3 2 3 4 5 7 8 10 11 12 14 15 16 17 18 19 20 21 22 23 24 25 26 27 29 30 31 33 34 36 37 39 41 44 47 48 50 51 52 54 55 56 57 58 59 60 62 63 65 66 67 68 71 72 73 76 79 82 83 87 88 90 91 92 93 94 95 96 97 98 99
b 4 2 3 4 8 10 12 15 16 17 18 23 24 25 26 29 31 34 36 37 39 44 47 48 51 56 57 59 60 62 63 65 66 67 68 71 73 74 79 82 87 90 93 94 95 96 97 98 99
b 5 2 3 4 5 6 7 8 9 10 12 14 15 16 17 18 19 20 21 22 23 24 25 27 28 29 31 33 34 35 37 38 39 40 41 42 43 44 45 47 48 49 50 51 52 54 55 56 57 58 59 60 61 62 63 64 65 66 67 68 69 71 72 73 76 79 81 82 83 86 87 88 89 90 91 92 93 94 95 96 97 99 100
b 6 2 3 4 5 6 7 8 9 10 12 14 15 16 17 18 19 20 21 22 23 24 25 28 29 31 33 34 35 38 39 40 42 43 44 45 47 48 49 50 51 52 54 55 56 57 58 59 60 61 62 63 64 65 66 67 68 69 71 72 73 76 79 81 82 83 85 86 88 89 90 91 92 93 94 96 97 99 100
b 7 2 3 4 5 6 7 8 9 10 12 14 16 17 18 19 20 22 23 24 25 28 29 33 34 35 38 40 43 44 45 48 49 50 51 52 54 55 56 57 58 59 60 61 62 63 64 65 66 67 68 69 71 73 76 77 79 81 82 83 85 86 88 89 91 92 94 96 97 99 100
b 8 3 4 5 6 9 16 18 19 23 28 29 33 34 38 40 43 44 46 48 49 50 57 61 62 63 64 65 66 67 68 71 73 76 77 79 82 88 89 91 94 97 99 100
b 9 1 2 3 4 5 6 7 8 9 11 12 13 14 15 16 17 18 20 21 22 23 24 25 26 27 28 29 30 31 33 34 35 37 38 39 40 41 42 43 44 45 47 48 50 51 52 54 55 56 57 58 59 60 62 63 64 65 66 67 68 69 71 72 73 76 79 81 82 83 84 86 87 88 89 90 91 92 93 94 95 96 97 98 99 100
b 10 1 2 3 4 5 6 7 8 9 11 12 13 14 15 16 17 18 20 21 22 23 24 25 26 27 28 31 33 34 35 37 38 39 40 41 42 43 44 45 47 48 50 51 52 54 55 56 57 58 59 60 62 63 64 65 66 67 68 69 71 72 73 75 76 79 81 82 83 84 86 88 89 90 91 92 93 94 95 96 97 98 99 100
b 11 1 2 3 4 5 6 7 8 9 11 12 13 14 16 17 18 20 21 22 23 24 25 26 27 31 33 34 35 37 38 39 40 41 42 43 44 45 47 48 50 51 52 54 55 56 57 58 59 60 62 63 64 65 66 67 68 69 71 72 73 75 76 79 80 81 82 83 84 86 88 89 90 91 92 93 94 95 96 97 98 99 100
b 12 1 2 3 4 5 6 7 8 9 11 12 13 14 16 17 18 20 21 22 23 24 25 26 27 31 32 33 34 35 37 38 39 40 41 42 43 44 45 47 48 50 51 52 54 55 56 57 58 59 60 62 63 64 65 66 67 68 69 71 72 73 75 76 79 80 81 82 83 84 86 89 90 92 93 94 95 96 97 98 99 100
b 13 1 2 3 4 5 6 7 8 9 11 12 13 14 16 17 18 20 21 22 23 24 25 26 27 31 32 33 34 35 37 38 39 40 41 42 43 44 45 47 48 50 51 52 53 54 55 56 57 58 60 62 63 64 65 66 67 68 69 71 72 73 75 76 79 80 81 82 83 86 90 92 93 95 96 97 98 99 100
b 14 1 2 4 5 6 7 8 9 11 12 13 14 16 17 18 20 21 22 23 25 27 31 32 33 34 35 37 38 39 40 41 42 43 44 45 47 50 51 52 53 54 55 56 57 58 60 62 64 65 66 68 71 72 73 75 76 78 79 80 81 82 83 86 90 92 93 95 96 97 98 99 100
b 15 1 2 4 5 8 12 13 14 16 17 18 22 23 25 27 31 32 34 35 37 38 39 41 43 44 45 47 50 51 52 54 56 58 60 64 65 66 68 70 73 78 79 80 81 82 86 90 92 93 95 96 99 100
1 2
1 9
2 3
2 5
3 4
5 6
6 7
7 8
9 10
10 11
11 12
12 13
13 14
14 15
